SCIP Status        : solving was interrupted [time limit reached]
Total Time         :    3600.01
  solving          :    3600.00
  presolving       :       0.45 (included in solving)
  reading          :       0.01
  copying          :       1.25 (39 #copies) (minimal 0.00, maximal 0.08, average 0.03)
Original Problem   :
  Problem name     : bbbenchmark/g05_100.3.cut
  Variables        : 101 (100 binary, 0 integer, 0 implicit integer, 1 continuous)
  Constraints      : 1 initial, 1 maximal
  Objective        : minimize, 1 non-zeros (abs.min = 1, abs.max = 1)
Presolved Problem  :
  Problem name     : t_bbbenchmark/g05_100.3.cut
  Variables        : 1898 (100 binary, 0 integer, 1784 implicit integer, 14 continuous)
  Constraints      : 1824 initial, 8084 maximal
  Objective        : minimize, 1 non-zeros (abs.min = 1, abs.max = 1)
  Nonzeros         : 8697 constraint, 202 clique table
Presolvers         :   ExecTime  SetupTime  Calls  FixedVars   AggrVars   ChgTypes  ChgBounds   AddHoles    DelCons    AddCons   ChgSides   ChgCoefs
  boundshift       :       0.00       0.00      0          0          0          0          0          0          0          0          0          0
  convertinttobin  :       0.00       0.00      0          0          0          0          0          0          0          0          0          0
  domcol           :       0.00       0.00      1          0          0          0          0          0          0          0          0          0
  dualagg          :       0.00       0.00      0          0          0          0          0          0          0          0          0          0
  dualcomp         :       0.00       0.00      1          0          0          0          0          0          0          0          0          0
  dualinfer        :       0.00       0.00      0          0          0          0          0          0          0          0          0          0
  dualsparsify     :       0.00       0.00      1          0          0          0          0          0          0          0          0          0
  gateextraction   :       0.00       0.00      0          0          0          0          0          0          0          0          0          0
  implics          :       0.00       0.00      2          0          0          0          0          0          0          0          0          0
  inttobinary      :       0.00       0.00      0          0          0          0          0          0          0          0          0          0
  qpkktref         :       0.00       0.00      0          0          0          0          0          0          0          0          0          0
  redvub           :       0.00       0.00      0          0          0          0          0          0          0          0          0          0
  sparsify         :       0.00       0.00      1          0          0          0          0          0          0          0          0          0
  stuffing         :       0.00       0.00      0          0          0          0          0          0          0          0          0          0
  trivial          :       0.00       0.00      4          0          0          0          0          0          0          0          0          0
  tworowbnd        :       0.00       0.00      0          0          0          0          0          0          0          0          0          0
  dualfix          :       0.00       0.00      4          0          0          0          0          0          0          0          0          0
  genvbounds       :       0.00       0.00      0          0          0          0          0          0          0          0          0          0
  probing          :       0.32       0.00      1          0          0          0          0          0          0          0          0          0
  pseudoobj        :       0.00       0.00      1          0          0          0          1          0          0          0          0          0
  symmetry         :       0.00       0.00      0          0          0          0          0          0          0          0          0          0
  vbounds          :       0.00       0.00      1          0          0          0          0          0          0          0          0          0
  varbound         :       0.00       0.00      2          0          0          0          0          0          0          0          0          0
  and              :       0.00       0.00      2          0          0          0          0          0          0          0          0          0
  linear           :       0.01       0.00      2          0          0          0          0          0          0          0          0          0
  logicor          :       0.00       0.00      0          0          0          0          0          0          0          0          0          0
  bounddisjunction :       0.00       0.00      0          0          0          0          0          0          0          0          0          0
  nonlinear        :       0.09       0.01      5          0          0          0          1          0          0       1823          0          0
  benders          :       0.00       0.00      0          0          0          0          0          0          0          0          0          0
  components       :       0.00       0.00      1          0          0          0          0          0          0          0          0          0
  root node        :          -          -      -          0          -          -         14          -          -          -          -          -
Constraints        :     Number  MaxNumber  #Separate #Propagate    #EnfoLP    #EnfoRelax  #EnfoPS    #Check   #ResProp    Cutoffs    DomReds       Cuts    Applied      Conss   Children
  benderslp        :          0          0          0          0      95756          0          0      15812          0          0          0          0          0          0          0
  integral         :          0          0          0          0      95756          0          0      15812          0          0       1061          0          0        890     190108
  varbound         :         13         13         51     530032          0          0          0        106          0          0      38696          0          0          0          0
  and              :       1784       1784     112189     725604          1          0          0        106     570623          2    1124037       1448       1435          0          0
  linear           :         27+        39         51     725648          1          0          0        104       1056         15     273937          0          0          0          0
  logicor          :          0+      5865          0     138174          0          0          0          0        205        633         54          0          0          0          0
  bounddisjunction :          0+       458          0      55349          0          0          0          0          1         51          1          0          0          0          0
  benders          :          0          0          0          0          1          0          0        107          0          0          0          0          0          0          0
  countsols        :          0          0          0          0          1          0          0        107          0          0          0          0          0          0          0
  components       :          0          0          0          0          0          0          0          0          0          0          0          0          0          0          0
Constraint Timings :  TotalTime  SetupTime   Separate  Propagate     EnfoLP     EnfoPS     EnfoRelax   Check    ResProp    SB-Prop
  benderslp        :       0.07       0.00       0.00       0.00       0.07       0.00       0.00       0.00       0.00       0.00
  integral         :      61.14       0.00       0.00       0.00      61.11       0.00       0.00       0.03       0.00       0.00
  varbound         :       0.79       0.00       0.00       0.78       0.00       0.00       0.00       0.00       0.00       0.01
  and              :     136.01       0.00      93.74      41.19       0.00       0.00       0.00       0.04       0.50       0.54
  linear           :       4.91       0.00       0.02       4.84       0.00       0.00       0.00       0.01       0.01       0.03
  logicor          :      13.55       0.00       0.00      13.51       0.00       0.00       0.00       0.00       0.00       0.04
  bounddisjunction :       1.06       0.00       0.00       1.06       0.00       0.00       0.00       0.00       0.00       0.00
  benders          :       0.00       0.00       0.00       0.00       0.00       0.00       0.00       0.00       0.00       0.00
  countsols        :       0.00       0.00       0.00       0.00       0.00       0.00       0.00       0.00       0.00       0.00
  components       :       0.13       0.00       0.00       0.13       0.00       0.00       0.00       0.00       0.00       0.00
Propagators        : #Propagate   #ResProp    Cutoffs    DomReds
  dualfix          :          4          0          0          0
  genvbounds       :          0          0          0          0
  nlobbt           :          0          0          0          0
  obbt             :          0          0          0          0
  probing          :          0          0          0          0
  pseudoobj        :     369600          0          0         42
  redcost          :     217733          0          0      78356
  rootredcost      :         13          0          0          0
  symmetry         :          0          0          0          0
  vbounds          :      97996          0          0          0
Propagator Timings :  TotalTime  SetupTime   Presolve  Propagate    ResProp    SB-Prop
  dualfix          :       0.00       0.00       0.00       0.00       0.00       0.00
  genvbounds       :       0.57       0.00       0.00       0.56       0.00       0.01
  nlobbt           :       0.00       0.00       0.00       0.00       0.00       0.00
  obbt             :       0.00       0.00       0.00       0.00       0.00       0.00
  probing          :       0.32       0.00       0.32       0.00       0.00       0.00
  pseudoobj        :       0.79       0.00       0.00       0.79       0.00       0.00
  redcost          :      15.18       0.00       0.00      15.18       0.00       0.00
  rootredcost      :       0.68       0.00       0.00       0.67       0.00       0.01
  symmetry         :       0.31       0.00       0.00       0.31       0.00       0.00
  vbounds          :       0.65       0.00       0.00       0.64       0.00       0.01
Conflict Analysis  :       Time      Calls    Success    DomReds  Conflicts   Literals    Reconvs ReconvLits   Dualrays   Nonzeros   LP Iters   (pool size: [10000,10000])
  propagation      :       0.02        686        511          -        588       62.6          0        0.0          -          -          -
  infeasible LP    :       0.16         51         51          -       2165      151.4          0        0.0         63      210.6          0
  bound exceed. LP :      25.82       9142       7771          -     167349      105.5          1       57.0          0        0.0      54122
  strong branching :       0.00          0          0          -          0        0.0          0        0.0          -          -          0
  pseudo solution  :       0.00          0          0          -          0        0.0          0        0.0          -          -          -
  applied globally :       0.84          -          -          0      38869      109.5          -          -         63          -          -
  applied locally  :          -          -          -          0          0        0.0          -          -          0          -          -
Separators         :   ExecTime  SetupTime      Calls  RootCalls    Cutoffs    DomReds  FoundCuts ViaPoolAdd  DirectAdd    Applied ViaPoolApp  DirectApp      Conss
  cut pool         :       8.98          -      30878         71          -          -      33139    2319341          -          -          -          -          -    (maximal pool size:       2853)
  aggregation      :       9.97       0.00       4615         51          0          0         90        521          0         23         23          0          0
  > cmir           :          -          -          -          -          -          -          -        521          0         23         23          0          -
  > flowcover      :          -          -          -          -          -          -          -          0          0          0          0          0          -
  > knapsackcover  :          -          -          -          -          -          -          -          0          0          0          0          0          -
  cgmip            :       0.00       0.00          0          0          0          0          0          0          0          0          0          0          0
  clique           :       0.01       0.00         51         51          0          0          0          0          0          0          0          0          0
  closecuts        :       0.00       0.00          0          0          0          0          0          0          0          0          0          0          0
  convexproj       :       0.00       0.00          0          0          0          0          0          0          0          0          0          0          0
  disjunctive      :       0.00       0.00          0          0          0          0          0          0          0          0          0          0          0
  eccuts           :       0.00       0.00          0          0          0          0          0          0          0          0          0          0          0
  gauge            :       0.00       0.00          0          0          0          0          0          0          0          0          0          0          0
  gomory           :       0.00       0.00          0          0          0          0          0          0          0          0          0          0          0
  > gomorymi       :          -          -          -          -          -          -          -          0          0          0          0          0          -
  > strongcg       :          -          -          -          -          -          -          -          0          0          0          0          0          -
  impliedbounds    :       0.33       0.00       4615         51          0          0          2          0          0          0          0          0          0
  interlattice     :       0.23       0.00         30         30          0          0         30          0         30         29          0         29          0
  interminor       :       0.00       0.00          0          0          0          0          0          0          0          0          0          0          0
  intersub         :       0.00       0.00          0          0          0          0          0          0          0          0          0          0          0
  intobj           :       0.00       0.00          0          0          0          0          0          0          0          0          0          0          0
  mcf              :       0.00       0.00          1          1          0          0          0          0          0          0          0          0          0
  minor            :       0.00       0.00          0          0          0          0          0          0          0          0          0          0          0
  mixing           :       0.02       0.00       4615         51          0          0          0          0          0          0          0          0          0
  oddcycle         :       0.00       0.00          0          0          0          0          0          0          0          0          0          0          0
  rapidlearning    :       0.01       0.00          0          0          0          0          0          0          0          0          0          0          0
  rlt              :       0.00       0.00         10         10          0          0          0          0          0          0          0          0          0
  zerohalf         :      40.13       0.00       3962         20          0          0      33047    2318820          0     228604     228604          0          0
Cutselectors       :   ExecTime  SetupTime      Calls  RootCalls   Selected     Forced   Filtered  RootSelec   RootForc   RootFilt 
  hybrid           :       2.44       0.00      19646         49     230091          0    2090728        211          0         35
Pricers            :   ExecTime  SetupTime      Calls       Vars
  problem variables:       0.00          -          0          0
Branching Rules    :   ExecTime  SetupTime   BranchLP  BranchExt   BranchPS    Cutoffs    DomReds       Cuts      Conss   Children
  allfullstrong    :       0.00       0.00          0          0          0          0          0          0          0          0
  cloud            :       0.00       0.00          0          0          0          0          0          0          0          0
  distribution     :       0.00       0.00          0          0          0          0          0          0          0          0
  fullstrong       :       0.00       0.00          0          0          0          0          0          0          0          0
  inference        :       0.00       0.00          0          0          0          0          0          0          0          0
  leastinf         :       0.00       0.00          0          0          0          0          0          0          0          0
  lookahead        :       0.00       0.00          0          0          0          0          0          0          0          0
  mostinf          :       0.00       0.00          0          0          0          0          0          0          0          0
  multaggr         :       0.00       0.00          0          0          0          0          0          0          0          0
  nodereopt        :       0.00       0.00          0          0          0          0          0          0          0          0
  pscost           :       0.00       0.00          0          0          0          0          0          0          0          0
  random           :       0.00       0.00          0          0          0          0          0          0          0          0
  relpscost        :      60.72       0.00      95755          0          0          0       1061          0        890     190108
  vanillafullstrong:       0.00       0.00          0          0          0          0          0          0          0          0
Primal Heuristics  :   ExecTime  SetupTime      Calls      Found       Best
  LP solutions     :       0.00          -          -          1          1
  relax solutions  :       0.00          -          -          0          0
  pseudo solutions :       0.00          -          -          0          0
  strong branching :       0.03          -          -          0          0
  actconsdiving    :       0.00       0.00          0          0          0
  adaptivediving   :       4.01       0.00         34          0          0
  alns             :       1.51       0.00         16          1          1
  bound            :       0.00       0.00          0          0          0
  clique           :       0.01       0.00          1          0          0
  coefdiving       :       0.00       0.00          0          0          0
  completesol      :       0.00       0.00          0          0          0
  conflictdiving   :     190.95       0.00       1369          0          0
  crossover        :       0.54       0.00          2          1          1
  dins             :       0.00       0.00          0          0          0
  distributiondivin:      88.01       0.00        402          0          0
  dps              :       0.00       0.00          0          0          0
  dualval          :       0.00       0.00          0          0          0
  farkasdiving     :       0.02       0.00          0          0          0
  feaspump         :       0.19       0.00          1          1          1
  fixandinfer      :       0.00       0.00          0          0          0
  fracdiving       :      65.85       0.00        535          0          0
  gins             :       0.05       0.00          0          0          0
  guideddiving     :      71.38       0.00        566          5          5
  indicator        :       0.10       0.00          0          0          0
  indicatordiving  :       0.00       0.00          0          0          0
  intdiving        :       0.00       0.00          0          0          0
  intshifting      :       0.74       0.00        105          0          0
  linesearchdiving :      64.74       0.00        570          0          0
  localbranching   :       0.00       0.00          0          0          0
  locks            :       0.00       0.00          1          0          0
  lpface           :       0.04       0.00          0          0          0
  mpec             :     116.36       0.00         11          3          3
  multistart       :       0.00       0.00          0          0          0
  mutation         :       0.00       0.00          0          0          0
  nlpdiving        :      17.99       0.00          5          2          0
  objpscostdiving  :     133.94       0.00        155         77          0
  octane           :       0.00       0.00          0          0          0
  ofins            :       0.06       0.00          0          0          0
  oneopt           :       0.13       0.00         17          0          0
  padm             :       0.00       0.00          0          0          0
  proximity        :       0.00       0.00          0          0          0
  pscostdiving     :      65.11       0.00        452          1          1
  randrounding     :       0.76       0.00      15701          0          0
  rens             :       0.00       0.00          0          0          0
  reoptsols        :       0.00       0.00          0          0          0
  repair           :       0.00       0.00          0          0          0
  rins             :       5.09       0.00         20          0          0
  rootsoldiving    :      71.13       0.00         69          8          0
  rounding         :       1.59       0.00       4691          0          0
  shiftandpropagate:       0.00       0.00          0          0          0
  shifting         :      56.98       0.00      10437          2          2
  simplerounding   :       0.10       0.00          0          0          0
  subnlp           :     175.23       0.00          0          0          0
  trivial          :       0.03       0.00          2          2          2
  trivialnegation  :       0.00       0.00          0          0          0
  trustregion      :       0.00       0.00          0          0          0
  trysol           :       0.15       0.00          0          0          0
  twoopt           :       0.00       0.00          0          0          0
  undercover       :       1.60       0.00          1          1          1
  vbounds          :       0.00       0.00          0          0          0
  veclendiving     :      64.32       0.00        520          0          0
  zeroobj          :       0.00       0.00          0          0          0
  zirounding       :       0.54       0.00       1000          0          0
  other solutions  :          -          -          -          0          -
Diving (single)    :      Calls      Nodes   LP Iters Backtracks  Conflicts   MinDepth   MaxDepth   AvgDepth  RoundSols  NLeafSols  MinSolDpt  MaxSolDpt  AvgSolDpt
  actconsdiving    :          0          -          -          -          -          -          -          -          -          -          -          -          -
  coefdiving       :          0          -          -          -          -          -          -          -          -          -          -          -          -
  conflictdiving   :       1369      58446    1966723       1822      71994         52         86       63.3          0          -          -          -          -
  distributiondivin:        402      15766     668973        450       6266         51         74       58.9          0          -          -          -          -
  farkasdiving     :          0          -          -          -          -          -          -          -          -          -          -          -          -
  fracdiving       :        535      43730     664903        371       8301         55        301      102.5          0          -          -          -          -
  guideddiving     :        566      43865     721774        403      11211         55        203       98.6          0          5         90        125      110.4
  indicatordiving  :          0          -          -          -          -          -          -          -          -          -          -          -          -
  linesearchdiving :        570      22046     664582        525      29059         47         98       60.1          0          -          -          -          -
  pscostdiving     :        452      20188     682125        482       8276         54         85       65.3          0          1         85         85       85.0
  veclendiving     :        520      22187     665126        480      30563         53         84       62.2          0          -          -          -          -
Diving (adaptive)  :      Calls      Nodes   LP Iters Backtracks  Conflicts   MinDepth   MaxDepth   AvgDepth  RoundSols  NLeafSols  MinSolDpt  MaxSolDpt  AvgSolDpt
  actconsdiving    :          2         53       1698          2         20         58         58       58.0          0          -          -          -          -
  coefdiving       :         16        705      19050          9        822         56         77       63.2          0          -          -          -          -
  conflictdiving   :          0          -          -          -          -          -          -          -          -          -          -          -          -
  distributiondivin:          0          -          -          -          -          -          -          -          -          -          -          -          -
  farkasdiving     :          0          -          -          -          -          -          -          -          -          -          -          -          -
  fracdiving       :          2        133       2765          3         75         77         97       87.0          0          -          -          -          -
  guideddiving     :          2        149       2522          1         67         91         96       93.5          0          -          -          -          -
  indicatordiving  :          0          -          -          -          -          -          -          -          -          -          -          -          -
  linesearchdiving :          7        279       7237          6        308         56         89       63.6          0          -          -          -          -
  pscostdiving     :          1         47       1623          1          8         65         65       65.0          0          -          -          -          -
  veclendiving     :          4        164       4263          3        196         57         74       65.2          0          -          -          -          -
Neighborhoods      :      Calls  SetupTime  SolveTime SolveNodes       Sols       Best       Exp3  EpsGreedy        UCB TgtFixRate  Opt  Inf Node Stal  Sol  Usr Othr Actv
  rens             :          2       0.12       0.03          4          0          0    0.00000   -1.00000    0.54329      0.550    0    2    0    0    0    0    0    1
  rins             :          2       0.16       0.10         71          0          0    0.00000   -1.00000    0.46811      0.850    0    1    0    1    0    0    0    1
  mutation         :          2       0.10       0.08         54          0          0    0.00000   -1.00000    0.48203      0.550    0    2    0    0    0    0    0    1
  localbranching   :          1       0.03       0.02         15          0          0    0.00000   -1.00000    0.55233      0.700    0    1    0    0    0    0    0    1
  crossover        :          2       0.13       0.13         60          0          0    0.00000   -1.00000    0.44711      0.850    0    1    0    1    0    0    0    1
  proximity        :          1       0.03       0.01          9          0          0    0.00000   -1.00000    0.55833      0.700    0    1    0    0    0    0    0    1
  zeroobjective    :          5       0.21       0.17        190          1          1    0.00000   -1.00000    0.53660      0.879    1    1    0    3    0    0    0    1
  dins             :          1       0.03       0.02         15          0          0    0.00000   -1.00000    0.55233      0.700    0    1    0    0    0    0    0    1
  trustregion      :          0       0.00       0.00          0          0          0    0.00000   -1.00000    1.00000      0.900    0    0    0    0    0    0    0    0
Expressions        :   #IntEval  IntEvalTi   #RevProp  RevPropTi    DomReds    Cutoffs  #Estimate  EstimTime  Branching  #Simplify SimplifyTi Simplified
  pow              :          0       0.00          0       0.00          0          0          0       0.00          0          0       0.00          0
  prod             :       9900       0.01          0       0.00          0          0          0       0.00          0       6734       0.00          0
  sum              :          8       0.00          2       0.00          0          0          0       0.00          0          3       0.01          2
  var              :       6503       0.01          0       0.00          0          0          0       0.00          0      15568       0.00          0
  varidx           :          0       0.00          0       0.00          0          0          0       0.00          0          0       0.00          0
LP                 :       Time      Calls Iterations  Iter/call   Iter/sec  Time-0-It Calls-0-It    ItLimit
  primal LP        :     114.09      16305          0       0.00       0.00     114.00      16305
  dual LP          :    1816.76     154435   13022206      88.07    7167.82       3.09       6569
  lex dual LP      :       0.00          0          0       0.00          -
  barrier LP       :       0.00          0          0       0.00          -       0.00          0
  resolve instable :       0.00          0          0       0.00          -
  diving/probing LP:     698.83      29713    7202844     242.41   10307.00
  strong branching :      20.37       2297     197529      85.99    9697.05          -          -         22
    (at root node) :          -         19       3734     196.53          -
  conflict analysis:       8.74       5565      54122       9.73    6192.45
NLP relaxation     :
  solve time       :      16.57 (11 calls)
  convexity        :  nonconvex (40 linear rows, 0 convex ineq., 0 nonconvex ineq., 1784 nonlinear eq. or two-sided ineq.)
NLP Solvers        :  #Problems  ProblemTi    #Solves  SolveTime      #Iter  Time/Iter      #Okay #TimeLimit #IterLimit #LObjLimit #Interrupt  #NumError #EvalError  #OutOfMem #LicenseEr #OtherTerm   #GlobOpt    #LocOpt  #Feasible #LocInfeas #GlobInfea #Unbounded   #Unknown
  ipopt            :         12       7.94         45     136.46       1753       0.08         45          0          0          0          0          0          0          0          0          0          0         31          0         11          0          0          3
B&B Tree           :
  number of runs   :          1
  nodes            :     127547 (95054 internal, 32493 leaves)
  feasible leaves  :          1
  infeas. leaves   :         10
  objective leaves :      32482
  nodes (total)    :     127547 (95054 internal, 32493 leaves)
  nodes left       :      62040
  max depth        :         69
  max depth (total):         69
  backtracks       :      26904 (21.1%)
  early backtracks :          0 (0.0%)
  nodes exc. ref.  :          0 (0.0%)
  delayed cutoffs  :          5
  repropagations   :       7813 (315 domain reductions, 0 cutoffs)
  avg switch length:       6.64
  switching time   :     153.15
Estim. Tree Size   :     256138
Estimation Tree    : 190109 nodes (128069 visited, 95054 internal, 33015 leaves, 62040 open), weight: 0.0000 completed 0.1262
Estimations        :      estim      value      trend resolution     smooth
  wbe              : 1052840653358629          -          -          -          -
  tree-profile     :         -1          -          -          -          -
  gap              :    1852168    0.67548    0.00002         64    1799855
  tree-weight      :     256138    0.00000    0.00000         64     255783
  leaf-frequency   :     500806    0.25779    0.00007         64     500825
  ssg              :   14789164    0.80071   -0.00001         64   14390143
  open-nodes       :     256138 62040.00000   10.19153         64     255783
Root Node          :
  First LP value   : -1.00000000000000e+00
  First LP Iters   :       1667 (11113.33 Iter/sec)
  First LP Time    :       0.15
  Final Dual Bound : -9.53434343434344e-01
  Final Root Iters :       2594
  Root LP Estimate : -3.27428794987103e-01
Solution           :
  Solutions found  :        105 (18 improvements)
  First Solution   : +1.00000000000000e+05   (in run 1, after 0 nodes, 0.01 seconds, depth 0, found by <trivial>)
  Gap First Sol.   :   infinite
  Gap Last Sol.    :      53.06 %
  Primal Bound     : -5.57171717171715e-01   (in run 1, after 57766 nodes, 1399.98 seconds, depth 90, found by <guideddiving>)
  Dual Bound       : -8.24848974042141e-01
  Gap              :      48.04 %
Integrals          :      Total       Avg%
  primal-dual      :  127352.58      35.38
  primal-ref       :          -          - (not evaluated)
  dual-ref         :          -          - (not evaluated)
